(set-info :smt-lib-version 2.6)
(set-info :category "crafted")
(set-logic QF_FF)
(define-sort FF0 () (_ FiniteField 52435875175126190479447740508185965837690552500527637822603658699938581184513))
(declare-fun x15 () Bool)
(declare-fun x14 () Bool)
(declare-fun x13 () Bool)
(declare-fun x12 () Bool)
(declare-fun x11 () Bool)
(declare-fun x10 () Bool)
(declare-fun x9 () Bool)
(declare-fun x8 () Bool)
(declare-fun x7 () Bool)
(declare-fun x6 () Bool)
(declare-fun x5 () Bool)
(declare-fun x4 () Bool)
(declare-fun x3 () Bool)
(declare-fun x2 () Bool)
(declare-fun x1 () Bool)
(declare-fun x0 () Bool)
(declare-fun out () FF0)
(declare-fun _30 () FF0)
(declare-fun _29 () FF0)
(declare-fun _7 () FF0)
(declare-fun _28 () FF0)
(declare-fun _6 () FF0)
(declare-fun _27 () FF0)
(declare-fun _5 () FF0)
(declare-fun _26 () FF0)
(declare-fun _4 () FF0)
(declare-fun _25 () FF0)
(declare-fun _3 () FF0)
(declare-fun _24 () FF0)
(declare-fun _2 () FF0)
(declare-fun _23 () FF0)
(declare-fun _15 () FF0)
(declare-fun _22 () FF0)
(declare-fun _14 () FF0)
(declare-fun _21 () FF0)
(declare-fun _13 () FF0)
(declare-fun _20 () FF0)
(declare-fun _12 () FF0)
(declare-fun _19 () FF0)
(declare-fun _11 () FF0)
(declare-fun _18 () FF0)
(declare-fun _10 () FF0)
(declare-fun _17 () FF0)
(declare-fun _9 () FF0)
(declare-fun _16 () FF0)
(declare-fun _8 () FF0)
(declare-fun _1 () FF0)
(declare-fun _0 () FF0)
(assert 
  (let ((let0 x15))
  (let ((let1 x14))
  (let ((let2 x13))
  (let ((let3 x12))
  (let ((let4 x11))
  (let ((let5 x10))
  (let ((let6 x9))
  (let ((let7 x8))
  (let ((let8 x7))
  (let ((let9 x6))
  (let ((let10 x5))
  (let ((let11 x4))
  (let ((let12 x3))
  (let ((let13 x2))
  (let ((let14 x1))
  (let ((let15 x0))
  (let ((let16 (or let15 let14 let13 let12 let11 let10 let9 let8 let7 let6 let5 let4 let3 let2 let1 let0)))
  (let ((let17 out))
  (let ((let18 (as ff1 FF0)))
  (let ((let19 (= let18 let17)))
  (let ((let20 (= let19 let16)))
  (let ((let21 (as ff0 FF0)))
  (let ((let22 (= let21 let17)))
  (let ((let23 (or let19 let22)))
  (let ((let24 (and let23 let20)))
  (let ((let25 _30))
  (let ((let26 (= let25 let17)))
  (let ((let27 (as ff52435875175126190479447740508185965837690552500527637822603658699938581184512 FF0)))
  (let ((let28 (ff.mul let25 let27)))
  (let ((let29 _29))
  (let ((let30 _7))
  (let ((let31 (ff.add let30 let29 let28)))
  (let ((let32 (ff.mul let29 let30)))
  (let ((let33 (= let32 let31)))
  (let ((let34 (ff.mul let29 let27)))
  (let ((let35 _28))
  (let ((let36 _6))
  (let ((let37 (ff.add let36 let35 let34)))
  (let ((let38 (ff.mul let35 let36)))
  (let ((let39 (= let38 let37)))
  (let ((let40 (ff.mul let35 let27)))
  (let ((let41 _27))
  (let ((let42 _5))
  (let ((let43 (ff.add let42 let41 let40)))
  (let ((let44 (ff.mul let41 let42)))
  (let ((let45 (= let44 let43)))
  (let ((let46 (ff.mul let41 let27)))
  (let ((let47 _26))
  (let ((let48 _4))
  (let ((let49 (ff.add let48 let47 let46)))
  (let ((let50 (ff.mul let47 let48)))
  (let ((let51 (= let50 let49)))
  (let ((let52 (ff.mul let47 let27)))
  (let ((let53 _25))
  (let ((let54 _3))
  (let ((let55 (ff.add let54 let53 let52)))
  (let ((let56 (ff.mul let53 let54)))
  (let ((let57 (= let56 let55)))
  (let ((let58 (ff.mul let53 let27)))
  (let ((let59 _24))
  (let ((let60 _2))
  (let ((let61 (ff.add let60 let59 let58)))
  (let ((let62 (ff.mul let59 let60)))
  (let ((let63 (= let62 let61)))
  (let ((let64 (ff.mul let59 let27)))
  (let ((let65 _23))
  (let ((let66 _15))
  (let ((let67 (ff.add let66 let65 let64)))
  (let ((let68 (ff.mul let65 let66)))
  (let ((let69 (= let68 let67)))
  (let ((let70 (ff.mul let65 let27)))
  (let ((let71 _22))
  (let ((let72 _14))
  (let ((let73 (ff.add let72 let71 let70)))
  (let ((let74 (ff.mul let71 let72)))
  (let ((let75 (= let74 let73)))
  (let ((let76 (ff.mul let71 let27)))
  (let ((let77 _21))
  (let ((let78 _13))
  (let ((let79 (ff.add let78 let77 let76)))
  (let ((let80 (ff.mul let77 let78)))
  (let ((let81 (= let80 let79)))
  (let ((let82 (ff.mul let77 let27)))
  (let ((let83 _20))
  (let ((let84 _12))
  (let ((let85 (ff.add let84 let83 let82)))
  (let ((let86 (ff.mul let83 let84)))
  (let ((let87 (= let86 let85)))
  (let ((let88 (ff.mul let83 let27)))
  (let ((let89 _19))
  (let ((let90 _11))
  (let ((let91 (ff.add let90 let89 let88)))
  (let ((let92 (ff.mul let89 let90)))
  (let ((let93 (= let92 let91)))
  (let ((let94 (ff.mul let89 let27)))
  (let ((let95 _18))
  (let ((let96 _10))
  (let ((let97 (ff.add let96 let95 let94)))
  (let ((let98 (ff.mul let95 let96)))
  (let ((let99 (= let98 let97)))
  (let ((let100 (ff.mul let95 let27)))
  (let ((let101 _17))
  (let ((let102 _9))
  (let ((let103 (ff.add let102 let101 let100)))
  (let ((let104 (ff.mul let101 let102)))
  (let ((let105 (= let104 let103)))
  (let ((let106 (ff.mul let101 let27)))
  (let ((let107 _16))
  (let ((let108 _8))
  (let ((let109 (ff.add let108 let107 let106)))
  (let ((let110 (ff.mul let107 let108)))
  (let ((let111 (= let110 let109)))
  (let ((let112 (ff.mul let107 let27)))
  (let ((let113 _1))
  (let ((let114 _0))
  (let ((let115 (ff.add let114 let113 let112)))
  (let ((let116 (ff.mul let114 let113)))
  (let ((let117 (= let116 let115)))
  (let ((let118 (ff.mul let66 let66)))
  (let ((let119 (= let118 let66)))
  (let ((let120 (ff.mul let72 let72)))
  (let ((let121 (= let120 let72)))
  (let ((let122 (ff.mul let78 let78)))
  (let ((let123 (= let122 let78)))
  (let ((let124 (ff.mul let84 let84)))
  (let ((let125 (= let124 let84)))
  (let ((let126 (ff.mul let90 let90)))
  (let ((let127 (= let126 let90)))
  (let ((let128 (ff.mul let96 let96)))
  (let ((let129 (= let128 let96)))
  (let ((let130 (ff.mul let102 let102)))
  (let ((let131 (= let130 let102)))
  (let ((let132 (ff.mul let108 let108)))
  (let ((let133 (= let132 let108)))
  (let ((let134 (ff.mul let30 let30)))
  (let ((let135 (= let134 let30)))
  (let ((let136 (ff.mul let36 let36)))
  (let ((let137 (= let136 let36)))
  (let ((let138 (ff.mul let42 let42)))
  (let ((let139 (= let138 let42)))
  (let ((let140 (ff.mul let48 let48)))
  (let ((let141 (= let140 let48)))
  (let ((let142 (ff.mul let54 let54)))
  (let ((let143 (= let142 let54)))
  (let ((let144 (ff.mul let60 let60)))
  (let ((let145 (= let144 let60)))
  (let ((let146 (ff.mul let113 let113)))
  (let ((let147 (= let146 let113)))
  (let ((let148 (ff.mul let114 let114)))
  (let ((let149 (= let148 let114)))
  (let ((let150 (and let149 let147 let145 let143 let141 let139 let137 let135 let133 let131 let129 let127 let125 let123 let121 let119 let117 let111 let105 let99 let93 let87 let81 let75 let69 let63 let57 let51 let45 let39 let33 let26)))
  (let ((let151 (ite let4 let18 let21)))
  (let ((let152 (= let54 let151)))
  (let ((let153 (ite let7 let18 let21)))
  (let ((let154 (= let72 let153)))
  (let ((let155 (ite let3 let18 let21)))
  (let ((let156 (= let48 let155)))
  (let ((let157 (ite let8 let18 let21)))
  (let ((let158 (= let78 let157)))
  (let ((let159 (ite let11 let18 let21)))
  (let ((let160 (= let96 let159)))
  (let ((let161 (ite let14 let18 let21)))
  (let ((let162 (= let113 let161)))
  (let ((let163 (ite let13 let18 let21)))
  (let ((let164 (= let108 let163)))
  (let ((let165 (ite let1 let18 let21)))
  (let ((let166 (= let36 let165)))
  (let ((let167 (ite let6 let18 let21)))
  (let ((let168 (= let66 let167)))
  (let ((let169 (ite let2 let18 let21)))
  (let ((let170 (= let42 let169)))
  (let ((let171 (ite let9 let18 let21)))
  (let ((let172 (= let84 let171)))
  (let ((let173 (ite let10 let18 let21)))
  (let ((let174 (= let90 let173)))
  (let ((let175 (ite let12 let18 let21)))
  (let ((let176 (= let102 let175)))
  (let ((let177 (ite let0 let18 let21)))
  (let ((let178 (= let30 let177)))
  (let ((let179 (ite let5 let18 let21)))
  (let ((let180 (= let60 let179)))
  (let ((let181 (ite let15 let18 let21)))
  (let ((let182 (= let114 let181)))
  (let ((let183 (and let182 let180 let178 let176 let174 let172 let170 let168 let166 let164 let162 let160 let158 let156 let154 let152)))
  (let ((let184 (and let183 let150)))
  (let ((let185 (=> let184 let24)))
  (let ((let186 (not let185)))
  let186
)))))))))))))))))))))))))))))))))))))))))))))))))))))))))))))))))))))))))))))))))))))))))))))))))))))))))))))))))))))))))))))))))))))))))))))))))))))))))))))))))))))))))))))))))))))))))))
)
(check-sat)
